35 55 46 1 39 79 36 83 52 17 27 14 15 9 25 50 54 3 59 51 29 81 5 80 44 4 85 92 37 93 2 82 30 32 26 23 96 8 47 45 18 11 95 68 48 16 34 42 97 43 13 6 64 84 75 49 91 70 72 7 67 86 20 61 76 41 40 31 10 0 66 73 77 12 24 87 69 90 63 22 65 98 28 38 33 94 89 60 19 58 53 57 21 78 56 88 99 62 74 71 

